(set-logic SLIA)
(constraint (= (f "Ducati100") "Ducati"))
(constraint (= (f "Ducati100") "Ducati"))
(constraint (= (f "Ducati100") "Ducati"))
(constraint (= (f "Honda125") "Honda"))
(constraint (= (f "Honda125") "Honda"))
(constraint (= (f "Honda125") "Honda"))
(constraint (= (f "Ducati250") "Ducati"))
(constraint (= (f "Ducati250") "Ducati"))
(constraint (= (f "Ducati250") "Ducati"))
(constraint (= (f "Honda250") "Honda"))
(constraint (= (f "Honda250") "Honda"))
(constraint (= (f "Honda250") "Honda"))
(constraint (= (f "Honda550") "Honda"))
(constraint (= (f "Honda550") "Honda"))
(constraint (= (f "Honda550") "Honda"))
(constraint (= (f "Ducati125") "Ducati"))
(constraint (= (f "Ducati125") "Ducati"))
(constraint (= (f "Ducati125") "Ducati"))
(constraint (= (f "Acura100") "Acura"))
(constraint (= (f "Acura100") "Acura"))
(constraint (= (f "Acura100") "Acura"))
(constraint (= (f "Acura125") "Acura"))
(constraint (= (f "Ferrari250") "Ferrari"))
(constraint (= (f "Ferrari250") "Ferrari"))
(constraint (= (f "Ferrari250") "Ferrari"))
(constraint (= (f "Ferrari250") "Ferrari"))
(constraint (= (f "Honda550") "Honda"))
(constraint (= (f "Honda550") "Honda"))
(constraint (= (f "Honda550") "Honda"))
(constraint (= (f "Ducati125") "Ducati"))
(constraint (= (f "Ducati125") "Ducati"))
(constraint (= (f "Ducati125") "Ducati"))
(constraint (= (f "Ducati100") "Ducati"))
(constraint (= (f "Honda125") "Honda"))
(constraint (= (f "Honda125") "Honda"))
(constraint (= (f "Honda125") "Honda"))
(constraint (= (f "Ducati250") "Ducati"))
(constraint (= (f "Honda250") "Honda"))
(constraint (= (f "Honda250") "Honda"))
(constraint (= (f "Honda250") "Honda"))
(constraint (= (f "Honda550") "Honda"))
(constraint (= (f "Ducati125") "Ducati"))
(constraint (= (f "Ducati125") "Ducati"))
(constraint (= (f "Ducati125") "Ducati"))
(constraint (= (f "Acura100") "Acura"))
(constraint (= (f "Acura125") "Acura"))
(constraint (= (f "Acura125") "Acura"))
(constraint (= (f "Acura125") "Acura"))
(constraint (= (f "Ferrari250") "Ferrari"))
(constraint (= (f "Ferrari250") "Ferrari"))
(constraint (= (f "Ferrari250") "Ferrari"))
(constraint (= (f "Honda550") "Honda"))
(constraint (= (f "Honda550") "Honda"))
(constraint (= (f "Honda550") "Honda"))
(constraint (= (f "Ducati125") "Ducati"))
(constraint (= (f "Ducati125") "Ducati"))
(constraint (= (f "Ducati125") "Ducati"))
(constraint (= (f "Ducati125") "Ducati"))
(check-synth)
(synth-fun f ((name String)) String ((Start String (ntString)) (ntString String ((Str A) (str.++ ntString A))) (A String ((Str ConstString) (SubStr X P P))) (P Int ((Int ntInt) (Pos X Pattern ntInt Direction))) (Pattern String ((Str ConstString) "ProperCase" "CAPS" "lowercase" "Digits" "Alphabets" "Alphanumeric" "WhiteSpace" "ProperCaseWSpaces" "CAPSWSpaces" "lowercaseSpaces" "AlphabetsWSpaces")) (X String (name)) (ConstString String (name " ")) (Direction Int (0 1)) (ntInt Int (-5 -4 -3 -2 -1 0 1 2 3 4 5))))
(define-fun ResFun ((name String)) String (Str (SubStr name (Int 0) (Pos name "Alphabets" 0 1))))
